HFSDDW
15	4	2
0	30	1	98
0	16	1	45
0	71	1	65
0	67	1	22
0	68	1	92
0	51	1	97
0	97	1	68
0	61	1	37
0	85	1	23
0	25	1	72
0	19	1	90
0	68	1	35
0	28	1	1
0	52	1	64
0	93	1	96
LBCmax: 470
RELDUE
-1	303	4	4
-1	244	7	4
-1	325	4	3
-1	267	5	8
-1	260	2	9
-1	257	4	3
-1	259	8	2
-1	254	7	2
-1	280	1	3
-1	326	7	2
-1	274	4	1
-1	263	6	4
-1	278	4	2
-1	247	6	7
-1	289	3	3
DDW
248	358
220	268
289	361
224	310
213	307
224	290
220	298
239	269
249	311
280	372
260	288
250	276
231	325
225	269
237	341
